NAME 
ROWS
 N  OBJ
 L  R0      
 E  R1      
 E  R2      
 E  R3      
 E  R4      
 E  R5      
 E  R6      
 E  R7      
 E  R8      
 E  R9      
 E  R10     
 E  R11     
 E  R12     
 E  R13     
 E  R14     
 E  R15     
 E  R16     
 E  R17     
 E  R18     
 E  R19     
 E  R20     
 E  R21     
 E  R22     
 E  R23     
 E  R24     
 E  R25     
 E  R26     
 E  R27     
 E  R28     
 E  R29     
 E  R30     
 E  R31     
 E  R32     
 E  R33     
 E  R34     
 E  R35     
 E  R36     
 E  R37     
 E  R38     
 E  R39     
 E  R40     
COLUMNS
    MARKER    'MARKER'                 'INTORG'
    I0(3)     OBJ       140
    I0(3)     R0        73
    I0(3)     R1        17
    I0(3)     R40       1
    I1(3)     OBJ       164
    I1(3)     R0        -126
    I1(3)     R2        7
    I1(3)     R40       1
    I2(3)     OBJ       12
    I2(3)     R0        -61
    I2(3)     R3        3
    I2(3)     R40       1
    I3(3)     OBJ       -114
    I3(3)     R0        -23
    I3(3)     R4        18
    I3(3)     R40       1
    I4(3)     OBJ       75
    I4(3)     R0        -97
    I4(3)     R5        -1
    I4(3)     R40       1
    I5(3)     OBJ       -31
    I5(3)     R0        144
    I5(3)     R6        1
    I5(3)     R40       1
    I6(3)     OBJ       122
    I6(3)     R0        179
    I6(3)     R7        -1
    I6(3)     R40       1
    I7(3)     OBJ       -82
    I7(3)     R0        -77
    I7(3)     R8        10
    I7(3)     R40       1
    I8(3)     OBJ       96
    I8(3)     R0        31
    I8(3)     R9        13
    I8(3)     R40       1
    I9(3)     OBJ       -193
    I9(3)     R0        134
    I9(3)     R10       2
    I9(3)     R40       1
    I10(2)    OBJ       68
    I10(2)    R0        20
    I10(2)    R40       1
    I11(3)    OBJ       66
    I11(3)    R0        -66
    I11(3)    R12       16
    I11(3)    R40       1
    I12(3)    OBJ       168
    I12(3)    R0        22
    I12(3)    R13       12
    I12(3)    R40       1
    I13(3)    OBJ       16
    I13(3)    R0        -13
    I13(3)    R14       15
    I13(3)    R40       1
    I14(3)    OBJ       84
    I14(3)    R0        150
    I14(3)    R15       1
    I14(3)    R40       1
    I15(2)    OBJ       70
    I15(2)    R16       1
    I15(2)    R40       1
    I16(3)    OBJ       -179
    I16(3)    R0        19
    I16(3)    R17       9
    I16(3)    R40       1
    I17(3)    OBJ       -146
    I17(3)    R0        -136
    I17(3)    R18       15
    I17(3)    R40       1
    I18(3)    R0        -199
    I18(3)    R19       14
    I18(3)    R40       1
    I19(2)    OBJ       -163
    I19(2)    R0        -63
    I19(2)    R40       1
    I20(3)    OBJ       30
    I20(3)    R0        196
    I20(3)    R21       11
    I20(3)    R40       1
    I21(3)    OBJ       -14
    I21(3)    R0        -69
    I21(3)    R22       9
    I21(3)    R40       1
    I22(3)    OBJ       68
    I22(3)    R0        28
    I22(3)    R23       14
    I22(3)    R40       1
    I23(3)    OBJ       -27
    I23(3)    R0        -27
    I23(3)    R24       19
    I23(3)    R40       1
    I24(3)    OBJ       134
    I24(3)    R0        93
    I24(3)    R25       17
    I24(3)    R40       1
    I25(3)    OBJ       -169
    I25(3)    R0        -131
    I25(3)    R26       4
    I25(3)    R40       1
    I26(3)    OBJ       144
    I26(3)    R0        89
    I26(3)    R27       11
    I26(3)    R40       1
    I27(3)    OBJ       -187
    I27(3)    R0        36
    I27(3)    R28       7
    I27(3)    R40       1
    I28(3)    OBJ       -150
    I28(3)    R0        -40
    I28(3)    R29       5
    I28(3)    R40       1
    I29(3)    OBJ       35
    I29(3)    R0        -65
    I29(3)    R30       19
    I29(3)    R40       1
    I30(3)    OBJ       124
    I30(3)    R0        26
    I30(3)    R31       9
    I30(3)    R40       1
    I31(3)    OBJ       -43
    I31(3)    R0        -146
    I31(3)    R32       14
    I31(3)    R40       1
    I32(3)    OBJ       31
    I32(3)    R0        -29
    I32(3)    R33       -1
    I32(3)    R40       1
    I33(3)    OBJ       193
    I33(3)    R0        -122
    I33(3)    R34       -1
    I33(3)    R40       1
    I34(3)    OBJ       -30
    I34(3)    R0        -95
    I34(3)    R35       7
    I34(3)    R40       1
    I35(3)    OBJ       -103
    I35(3)    R0        106
    I35(3)    R36       18
    I35(3)    R40       1
    I36(3)    OBJ       -141
    I36(3)    R0        -138
    I36(3)    R37       11
    I36(3)    R40       1
    I37(3)    OBJ       144
    I37(3)    R0        -125
    I37(3)    R38       4
    I37(3)    R40       1
    MARKER    'MARKER'                 'INTEND'
    C38(37)   OBJ       -5
    C38(37)   R0        -2
    C38(37)   R1        9
    C38(37)   R2        11
    C38(37)   R3        12
    C38(37)   R4        8
    C38(37)   R5        12
    C38(37)   R6        4
    C38(37)   R7        17
    C38(37)   R8        4
    C38(37)   R9        19
    C38(37)   R10       7
    C38(37)   R11       15
    C38(37)   R12       17
    C38(37)   R13       5
    C38(37)   R14       19
    C38(37)   R15       3
    C38(37)   R16       13
    C38(37)   R17       7
    C38(37)   R18       14
    C38(37)   R19       9
    C38(37)   R20       14
    C38(37)   R21       5
    C38(37)   R22       -1
    C38(37)   R23       3
    C38(37)   R24       17
    C38(37)   R25       3
    C38(37)   R26       15
    C38(37)   R27       17
    C38(37)   R29       18
    C38(37)   R30       5
    C38(37)   R31       14
    C38(37)   R32       1
    C38(37)   R35       13
    C38(37)   R36       19
    C38(37)   R37       5
    C38(37)   R38       8
    C38(37)   R39       8
    C39(38)   OBJ       -6
    C39(38)   R1        9
    C39(38)   R2        16
    C39(38)   R3        5
    C39(38)   R4        4
    C39(38)   R5        15
    C39(38)   R6        8
    C39(38)   R7        6
    C39(38)   R8        9
    C39(38)   R9        6
    C39(38)   R10       13
    C39(38)   R11       1
    C39(38)   R12       7
    C39(38)   R13       7
    C39(38)   R14       11
    C39(38)   R15       19
    C39(38)   R16       4
    C39(38)   R17       12
    C39(38)   R18       6
    C39(38)   R19       17
    C39(38)   R20       15
    C39(38)   R21       10
    C39(38)   R22       17
    C39(38)   R23       1
    C39(38)   R24       15
    C39(38)   R25       18
    C39(38)   R26       7
    C39(38)   R27       17
    C39(38)   R29       8
    C39(38)   R30       11
    C39(38)   R31       13
    C39(38)   R32       13
    C39(38)   R33       15
    C39(38)   R34       7
    C39(38)   R35       7
    C39(38)   R36       2
    C39(38)   R37       9
    C39(38)   R38       8
    C39(38)   R39       1
    C40(1)    R1        1
    C41(1)    R2        1
    C42(1)    R3        1
    C43(1)    R4        1
    C44(1)    R5        1
    C45(1)    R6        1
    C46(1)    R7        1
    C47(1)    R8        1
    C48(1)    R9        1
    C49(1)    R10       1
    C50(1)    R11       1
    C51(1)    R12       1
    C52(1)    R13       1
    C53(1)    R14       1
    C54(1)    R15       1
    C55(1)    R16       1
    C56(1)    R17       1
    C57(1)    R18       1
    C58(1)    R19       1
    C59(1)    R20       1
    C60(1)    R21       1
    C61(1)    R22       1
    C62(1)    R23       1
    C63(1)    R24       1
    C64(1)    R25       1
    C65(1)    R26       1
    C66(1)    R27       1
    C67(1)    R28       1
    C68(1)    R29       1
    C69(1)    R30       1
    C70(1)    R31       1
    C71(1)    R32       1
    C72(1)    R33       1
    C73(1)    R34       1
    C74(1)    R35       1
    C75(1)    R36       1
    C76(1)    R37       1
    C77(1)    R38       1
    C78(1)    R39       1
    C79(1)    R40       1
RHS
    RHS1      R0        -4.6195808383233532e+02
    RHS1      R1        77
    RHS1      R2        69
    RHS1      R3        56
    RHS1      R4        84
    RHS1      R5        78
    RHS1      R6        55
    RHS1      R7        69
    RHS1      R8        73
    RHS1      R9        70
    RHS1      R10       69
    RHS1      R11       59
    RHS1      R12       96
    RHS1      R13       66
    RHS1      R14       85
    RHS1      R15       73
    RHS1      R16       67
    RHS1      R17       77
    RHS1      R18       84
    RHS1      R19       80
    RHS1      R20       64
    RHS1      R21       67
    RHS1      R22       74
    RHS1      R23       67
    RHS1      R24       91
    RHS1      R25       83
    RHS1      R26       59
    RHS1      R27       94
    RHS1      R28       86
    RHS1      R29       59
    RHS1      R30       56
    RHS1      R31       64
    RHS1      R32       53
    RHS1      R33       83
    RHS1      R34       67
    RHS1      R35       81
    RHS1      R36       85
    RHS1      R37       77
    RHS1      R38       54
    RHS1      R39       62
    RHS1      R40       12
BOUNDS
 UP BND1      I0(3)     1
 UP BND1      I1(3)     1
 UP BND1      I2(3)     1
 UP BND1      I3(3)     1
 UP BND1      I4(3)     1
 UP BND1      I5(3)     1
 UP BND1      I6(3)     1
 UP BND1      I7(3)     1
 UP BND1      I8(3)     1
 UP BND1      I9(3)     1
 UP BND1      I10(2)    1
 UP BND1      I11(3)    1
 UP BND1      I12(3)    1
 UP BND1      I13(3)    1
 UP BND1      I14(3)    1
 UP BND1      I15(2)    1
 UP BND1      I16(3)    1
 UP BND1      I17(3)    1
 UP BND1      I18(3)    1
 UP BND1      I19(2)    1
 UP BND1      I20(3)    1
 UP BND1      I21(3)    1
 UP BND1      I22(3)    1
 UP BND1      I23(3)    1
 UP BND1      I24(3)    1
 UP BND1      I25(3)    1
 UP BND1      I26(3)    1
 UP BND1      I27(3)    1
 UP BND1      I28(3)    1
 UP BND1      I29(3)    1
 UP BND1      I30(3)    1
 UP BND1      I31(3)    1
 UP BND1      I32(3)    1
 UP BND1      I33(3)    1
 UP BND1      I34(3)    1
 UP BND1      I35(3)    1
 UP BND1      I36(3)    1
 UP BND1      I37(3)    1
ENDATA
